%%% static parameters %%%
timespan = 1;
Fact = [4];
Distr1 = [15];
Distr2 = [30];
Clients_N = [300];
Demand_W = [15];
Lt0 = [4];
Lt1 = [4];
SS_ = [0.85];
DS_D = [8];
K = [200];
MA = [500];
%%% dynamic parameters %%%
lost_ratio_sales_ret_th = 0.3098147324087174;
lost_ratio_sales_ret_w = 95;
lost_ratio_sales_dis_th = 0.5518402579425257;
lost_ratio_sales_dis_w = 92;
lost_ratio_sales_fac_th = 0.19787820834961323;
lost_ratio_sales_fac_w = 63;
stock_customer_MA_mean_relative_th = 0.8250666699115113;
stock_customer_MA_mean_relative_w = 65;
stock_distributor_MA_mean_relative_th = 0.016626750071843777;
stock_distributor_MA_mean_relative_w = 15;
stock_retailer_MA_mean_relative_th = 0.7773313392893607;
stock_retailer_MA_mean_relative_w = 63;
stock_factory_MA_mean_relative_th = 0.897568689185859;
stock_factory_MA_mean_relative_w = 20;
